unsat
(define-fun skel ((n132 Bool) (n137 Bool) (n143 Bool) (i13 Bool)) Bool (and (or (or (not n143) (not n132)) (not n137)) i13))
16.51user 0.01system 0:16.53elapsed 99%CPU (0avgtext+0avgdata 46428maxresident)k
0inputs+8outputs (0major+6299minor)pagefaults 0swaps
